NAME: part5
TYPE: TSP
COMMENT: Generated by WriteTSPProblem
DIMENSION: 5
EDGE_WEIGHT_TYPE: EUC_3D
NODE_COORD_SECTION
1 -184.235000 -178.608000 -5.000000
2 -170.524000 -211.750000 -5.000000
3 -48.500000 -20.333200 12.131100
4 -48.500000 -35.372300 2.279720
5 50.000000 -0.681214 5.849910
EOF